Instance: E076-10e.dat
Class:  4
   75 --- number of customers (no depot)
   16 --- number of vehicles
  179 --- number of items
Capacity - height - width of vehicles
   140     40     20
Node - x - y - demand
    0    40.0    40.0     0.0
    1    22.0    22.0    18.0
    2    36.0    26.0    26.0
    3    21.0    45.0    11.0
    4    45.0    35.0    30.0
    5    55.0    20.0    21.0
    6    33.0    34.0    19.0
    7    50.0    50.0    15.0
    8    55.0    45.0    16.0
    9    26.0    59.0    29.0
   10    40.0    66.0    26.0
   11    55.0    65.0    37.0
   12    35.0    51.0    16.0
   13    62.0    35.0    12.0
   14    62.0    57.0    31.0
   15    62.0    24.0     8.0
   16    21.0    36.0    19.0
   17    33.0    44.0    20.0
   18     9.0    56.0    13.0
   19    62.0    48.0    15.0
   20    66.0    14.0    22.0
   21    44.0    13.0    28.0
   22    26.0    13.0    12.0
   23    11.0    28.0     6.0
   24     7.0    43.0    27.0
   25    17.0    64.0    14.0
   26    41.0    46.0    18.0
   27    55.0    34.0    17.0
   28    35.0    16.0    29.0
   29    52.0    26.0    13.0
   30    43.0    26.0    22.0
   31    31.0    76.0    25.0
   32    22.0    53.0    28.0
   33    26.0    29.0    27.0
   34    50.0    40.0    19.0
   35    55.0    50.0    10.0
   36    54.0    10.0    12.0
   37    60.0    15.0    14.0
   38    47.0    66.0    24.0
   39    30.0    60.0    16.0
   40    30.0    50.0    33.0
   41    12.0    17.0    15.0
   42    15.0    14.0    11.0
   43    16.0    19.0    18.0
   44    21.0    48.0    17.0
   45    50.0    30.0    21.0
   46    51.0    42.0    27.0
   47    50.0    15.0    19.0
   48    48.0    21.0    20.0
   49    12.0    38.0     5.0
   50    15.0    56.0    22.0
   51    29.0    39.0    12.0
   52    54.0    38.0    19.0
   53    55.0    57.0    22.0
   54    67.0    41.0    16.0
   55    10.0    70.0     7.0
   56     6.0    25.0    26.0
   57    65.0    27.0    14.0
   58    40.0    60.0    21.0
   59    70.0    64.0    24.0
   60    64.0     4.0    13.0
   61    36.0     6.0    15.0
   62    30.0    20.0    18.0
   63    20.0    30.0    11.0
   64    15.0     5.0    28.0
   65    50.0    70.0     9.0
   66    57.0    72.0    37.0
   67    45.0    42.0    30.0
   68    38.0    33.0    10.0
   69    50.0     4.0     8.0
   70    66.0     8.0    11.0
   71    59.0     5.0     3.0
   72    35.0    60.0     1.0
   73    27.0    24.0     6.0
   74    40.0    20.0    10.0
   75    40.0    37.0    20.0
Node - number of items - h - w for each item
    0   0
    1   2    8    9   15    2
    2   1    5    3
    3   3    6    6   22    3   13    2
    4   1   26    3
    5   3    5   10   12    6   22    3
    6   2   16    7   26    2
    7   4   13    8    6    7   14    5   14    3
    8   3    5   11   21    2   16    2
    9   3   10    5    5    5   11    4
   10   2    7   12   13    3
   11   4    5   12    8    9    9    8    5    5
   12   1   20    3
   13   3   12    5   18    3    7    2
   14   2    9    5    8    5
   15   2    4   11   14    2
   16   3    7   10    7    5   21    3
   17   3    5   11    8    9    5    7
   18   3    8    6    7    6   19    2
   19   2   16    7   10    4
   20   1   15    2
   21   3    5   10    5    6   28    4
   22   2   29    3   23    3
   23   4    6   10    6    9   22    3   22    2
   24   3    5   13    6    8   11    6
   25   1    5    7
   26   3    6   14   13    6   32    4
   27   2    7   14    6    6
   28   2    5    9   23    4
   29   2   14    7   11    2
   30   3   12    7   14    3   13    3
   31   3    6    7   16    4   20    3
   32   2    6   12   22    2
   33   3    5    9    6    4   22    3
   34   1    5    6
   35   4   16    5   28    4   21    3   22    2
   36   3    8    8   14    4   12    3
   37   4    6   13    5   12   13    4    8    4
   38   1    6   14
   39   2   30    3   16    2
   40   2   13    7   16    3
   41   3    6    8   12    7   22    4
   42   2    7    9    5    8
   43   2    4   10    7    2
   44   1    4    5
   45   2    7    6    5    4
   46   2    8   12   15    4
   47   4    8   14   14    8   11    7   25    4
   48   2    5    9   12    3
   49   2    5   11   14    4
   50   3    8   13    8    8   11    4
   51   3    5    9    6    4   23    3
   52   4    6    7    9    6   14    3   13    3
   53   2    8   10   11    4
   54   3   12    5   17    3   26    2
   55   1   11    7
   56   1   13    6
   57   2    4   12    7    7
   58   2    4    9   32    3
   59   1    6    5
   60   1   26    4
   61   2   13    6   20    3
   62   3    6    6   24    4   16    2
   63   2   18    4   12    2
   64   2    5   13   15    8
   65   3    5    9   10    8   27    3
   66   3    5    6    7    4   28    3
   67   3   29    3   22    2   19    2
   68   2   11    4   28    3
   69   4    7   13    7   12   30    4    6    4
   70   4   31    4   25    4   23    3   23    2
   71   3    8   13   20    3   19    3
   72   1   23    4
   73   1    6    5
   74   3    6    9    8    7   30    3
   75   2    4    6   31    2
